(set-info :source |printed by MathSAT|)
(declare-fun |!{$(in_main#0)<N>}| () Int)
(declare-fun |!{$(in_main#0)<N>}.next| () Int)
(declare-fun |!{$(in_main#0)<&array>}| () Int)
(declare-fun |!{$(in_main#0)<&array>}.next| () Int)
(declare-fun |!{$(in_main#0)<$(in_partial_array_argmin#4)<array>>}| () Int)
(declare-fun |!{$(in_main#0)<$(in_partial_array_argmin#4)<array>>}.next| () Int)
(declare-fun |!{$(in_main#0)<i>}| () Int)
(declare-fun |!{$(in_main#0)<i>}.next| () Int)
(declare-fun |!{$(in_main#0)<k>}| () Int)
(declare-fun |!{$(in_main#0)<k>}.next| () Int)
(declare-fun |!{$(in_main#0)<$(in_partial_array_argmin#4)<end>>}| () Int)
(declare-fun |!{$(in_main#0)<$(in_partial_array_argmin#4)<end>>}.next| () Int)
(declare-fun |!{$(in_main#0)<$(in_partial_array_argmin#4)<argmin>>}| () Int)
(declare-fun |!{$(in_main#0)<$(in_partial_array_argmin#4)<argmin>>}.next| () Int)
(declare-fun |!{$(in_main#0)<k#1>}| () Int)
(declare-fun |!{$(in_main#0)<k#1>}.next| () Int)
(declare-fun |!{$(in_main#0)<$(in_partial_array_argmin#4)<i>>}| () Int)
(declare-fun |!{$(in_main#0)<$(in_partial_array_argmin#4)<i>>}.next| () Int)
(declare-fun |!{$(in_main#0)<l>}| () Int)
(declare-fun |!{$(in_main#0)<l>}.next| () Int)
(declare-fun |!{%memaddr}| () Int)
(declare-fun |!{%memaddr}.next| () Int)
(declare-fun |!{%mem.0}| () (Array Int Int))
(declare-fun |!{%mem.0}.next| () (Array Int Int))
(declare-fun |!{$(in_main#0)<$(in___VERIFIER_nondet_int#1)<h#<__VERIFIER_nondet_int.return>>>}| () Int)
(declare-fun |!{$(in_main#0)<$(in___VERIFIER_nondet_int#3)<h#<__VERIFIER_nondet_int.return>>>}| () Int)
(declare-fun !pc () Int)
(declare-fun !pc.next () Int)
(declare-fun |%{$(in_main#0)<i>}#1| () Int)
(declare-fun |%{$(in_main#0)<k#1>}#1| () Int)
(declare-fun |%{$(in_main#0)<l>}#1| () Int)
(declare-fun |%{$(in_main#0)<$(in_partial_array_argmin#4)<argmin>>}#2| () Int)
(declare-fun |%{%mem.0}#3| () (Array Int Int))
(define-fun .def_54 () Int (! !pc :next !pc.next))
(define-fun .def_57 () Bool (! (= .def_54 2) :init true))
(define-fun .def_354 () Bool (= .def_54 53))
(define-fun .def_320 () Bool (= !pc.next 73))
(define-fun .def_357 () Bool (and .def_320 .def_354))
(define-fun .def_342 () Bool (= |!{$(in_main#0)<i>}.next| 0))
(define-fun .def_10 () Int (! |!{$(in_main#0)<&array>}| :next |!{$(in_main#0)<&array>}.next|))
(define-fun .def_111 () Bool (= .def_10 |!{$(in_main#0)<&array>}.next|))
(define-fun .def_8 () Int (! |!{$(in_main#0)<N>}| :next |!{$(in_main#0)<N>}.next|))
(define-fun .def_110 () Bool (= .def_8 |!{$(in_main#0)<N>}.next|))
(define-fun .def_112 () Bool (and .def_110 .def_111))
(define-fun .def_343 () Bool (and .def_112 .def_342))
(define-fun .def_12 () Int (! |!{$(in_main#0)<$(in_partial_array_argmin#4)<array>>}| :next |!{$(in_main#0)<$(in_partial_array_argmin#4)<array>>}.next|))
(define-fun .def_80 () Bool (= .def_12 |!{$(in_main#0)<$(in_partial_array_argmin#4)<array>>}.next|))
(define-fun .def_344 () Bool (and .def_80 .def_343))
(define-fun .def_18 () Int (! |!{$(in_main#0)<$(in_partial_array_argmin#4)<end>>}| :next |!{$(in_main#0)<$(in_partial_array_argmin#4)<end>>}.next|))
(define-fun .def_82 () Bool (= .def_18 |!{$(in_main#0)<$(in_partial_array_argmin#4)<end>>}.next|))
(define-fun .def_345 () Bool (and .def_82 .def_344))
(define-fun .def_16 () Int (! |!{$(in_main#0)<k>}| :next |!{$(in_main#0)<k>}.next|))
(define-fun .def_117 () Bool (= .def_16 |!{$(in_main#0)<k>}.next|))
(define-fun .def_346 () Bool (and .def_117 .def_345))
(define-fun .def_22 () Int (! |!{$(in_main#0)<k#1>}| :next |!{$(in_main#0)<k#1>}.next|))
(define-fun .def_119 () Bool (= .def_22 |!{$(in_main#0)<k#1>}.next|))
(define-fun .def_347 () Bool (and .def_119 .def_346))
(define-fun .def_20 () Int (! |!{$(in_main#0)<$(in_partial_array_argmin#4)<argmin>>}| :next |!{$(in_main#0)<$(in_partial_array_argmin#4)<argmin>>}.next|))
(define-fun .def_88 () Bool (= .def_20 |!{$(in_main#0)<$(in_partial_array_argmin#4)<argmin>>}.next|))
(define-fun .def_348 () Bool (and .def_88 .def_347))
(define-fun .def_26 () Int (! |!{$(in_main#0)<l>}| :next |!{$(in_main#0)<l>}.next|))
(define-fun .def_139 () Bool (= .def_26 |!{$(in_main#0)<l>}.next|))
(define-fun .def_349 () Bool (and .def_139 .def_348))
(define-fun .def_24 () Int (! |!{$(in_main#0)<$(in_partial_array_argmin#4)<i>>}| :next |!{$(in_main#0)<$(in_partial_array_argmin#4)<i>>}.next|))
(define-fun .def_92 () Bool (= .def_24 |!{$(in_main#0)<$(in_partial_array_argmin#4)<i>>}.next|))
(define-fun .def_350 () Bool (and .def_92 .def_349))
(define-fun .def_28 () Int (! |!{%memaddr}| :next |!{%memaddr}.next|))
(define-fun .def_127 () Bool (= .def_28 |!{%memaddr}.next|))
(define-fun .def_351 () Bool (and .def_127 .def_350))
(define-fun .def_30 () (Array Int Int) (! |!{%mem.0}| :next |!{%mem.0}.next|))
(define-fun .def_96 () Bool (= .def_30 |!{%mem.0}.next|))
(define-fun .def_352 () Bool (and .def_96 .def_351))
(define-fun .def_325 () Bool (<= .def_8 .def_16))
(define-fun .def_353 () Bool (and .def_325 .def_352))
(define-fun .def_358 () Bool (and .def_353 .def_357))
(define-fun .def_100 () Bool (= !pc.next 53))
(define-fun .def_355 () Bool (and .def_100 .def_354))
(define-fun .def_327 () Int (+ .def_10 .def_16))
(define-fun .def_328 () (Array Int Int) (store .def_30 .def_327 |!{$(in_main#0)<$(in___VERIFIER_nondet_int#3)<h#<__VERIFIER_nondet_int.return>>>}|))
(define-fun .def_339 () Bool (= |!{%mem.0}.next| .def_328))
(define-fun .def_330 () Int (* (- 1) |!{$(in_main#0)<k>}.next|))
(define-fun .def_331 () Int (+ .def_16 .def_330))
(define-fun .def_332 () Bool (= .def_331 (- 1)))
(define-fun .def_14 () Int (! |!{$(in_main#0)<i>}| :next |!{$(in_main#0)<i>}.next|))
(define-fun .def_113 () Bool (= .def_14 |!{$(in_main#0)<i>}.next|))
(define-fun .def_114 () Bool (and .def_112 .def_113))
(define-fun .def_115 () Bool (and .def_80 .def_114))
(define-fun .def_116 () Bool (and .def_82 .def_115))
(define-fun .def_333 () Bool (and .def_116 .def_332))
(define-fun .def_334 () Bool (and .def_119 .def_333))
(define-fun .def_335 () Bool (and .def_88 .def_334))
(define-fun .def_336 () Bool (and .def_139 .def_335))
(define-fun .def_337 () Bool (and .def_92 .def_336))
(define-fun .def_338 () Bool (and .def_127 .def_337))
(define-fun .def_340 () Bool (and .def_338 .def_339))
(define-fun .def_326 () Bool (not .def_325))
(define-fun .def_341 () Bool (and .def_326 .def_340))
(define-fun .def_356 () Bool (and .def_341 .def_355))
(define-fun .def_359 () Bool (or .def_356 .def_358))
(define-fun .def_317 () Bool (= .def_54 89))
(define-fun .def_321 () Bool (and .def_317 .def_320))
(define-fun .def_313 () Bool (= |!{%mem.0}.next| |%{%mem.0}#3|))
(define-fun .def_301 () Int (* (- 1) |!{$(in_main#0)<i>}.next|))
(define-fun .def_302 () Int (+ .def_14 .def_301))
(define-fun .def_303 () Bool (= .def_302 (- 1)))
(define-fun .def_304 () Bool (and .def_112 .def_303))
(define-fun .def_305 () Bool (and .def_80 .def_304))
(define-fun .def_306 () Bool (and .def_82 .def_305))
(define-fun .def_307 () Bool (and .def_117 .def_306))
(define-fun .def_308 () Bool (and .def_119 .def_307))
(define-fun .def_309 () Bool (and .def_88 .def_308))
(define-fun .def_310 () Bool (and .def_139 .def_309))
(define-fun .def_311 () Bool (and .def_92 .def_310))
(define-fun .def_312 () Bool (and .def_127 .def_311))
(define-fun .def_314 () Bool (and .def_312 .def_313))
(define-fun .def_273 () Int (+ .def_10 .def_20))
(define-fun .def_274 () Int (select .def_30 .def_273))
(define-fun .def_275 () Int (+ .def_10 .def_14))
(define-fun .def_276 () Int (select .def_30 .def_275))
(define-fun .def_277 () (Array Int Int) (store .def_30 .def_273 .def_276))
(define-fun .def_278 () (Array Int Int) (store .def_277 .def_275 .def_274))
(define-fun .def_284 () Bool (= .def_278 |%{%mem.0}#3|))
(define-fun .def_271 () Bool (= .def_14 .def_20))
(define-fun .def_272 () Bool (not .def_271))
(define-fun .def_286 () Bool (and .def_272 .def_284))
(define-fun .def_283 () Bool (= .def_30 |%{%mem.0}#3|))
(define-fun .def_285 () Bool (and .def_271 .def_283))
(define-fun .def_287 () Bool (or .def_285 .def_286))
(define-fun .def_315 () Bool (and .def_287 .def_314))
(define-fun .def_252 () Bool (<= .def_18 .def_24))
(define-fun .def_316 () Bool (and .def_252 .def_315))
(define-fun .def_322 () Bool (and .def_316 .def_321))
(define-fun .def_245 () Bool (= !pc.next 89))
(define-fun .def_318 () Bool (and .def_245 .def_317))
(define-fun .def_293 () Int (* (- 1) |!{$(in_main#0)<$(in_partial_array_argmin#4)<i>>}.next|))
(define-fun .def_294 () Int (+ .def_24 .def_293))
(define-fun .def_295 () Bool (= .def_294 (- 1)))
(define-fun .def_290 () Bool (= |!{$(in_main#0)<$(in_partial_array_argmin#4)<argmin>>}.next| |%{$(in_main#0)<$(in_partial_array_argmin#4)<argmin>>}#2|))
(define-fun .def_118 () Bool (and .def_116 .def_117))
(define-fun .def_120 () Bool (and .def_118 .def_119))
(define-fun .def_291 () Bool (and .def_120 .def_290))
(define-fun .def_292 () Bool (and .def_139 .def_291))
(define-fun .def_296 () Bool (and .def_292 .def_295))
(define-fun .def_297 () Bool (and .def_127 .def_296))
(define-fun .def_298 () Bool (and .def_96 .def_297))
(define-fun .def_265 () Bool (= .def_24 |%{$(in_main#0)<$(in_partial_array_argmin#4)<argmin>>}#2|))
(define-fun .def_254 () Int (+ .def_12 .def_24))
(define-fun .def_255 () Int (select .def_30 .def_254))
(define-fun .def_256 () Int (+ .def_12 .def_20))
(define-fun .def_257 () Int (select .def_30 .def_256))
(define-fun .def_258 () Bool (<= .def_257 .def_255))
(define-fun .def_259 () Bool (not .def_258))
(define-fun .def_267 () Bool (and .def_259 .def_265))
(define-fun .def_264 () Bool (= .def_20 |%{$(in_main#0)<$(in_partial_array_argmin#4)<argmin>>}#2|))
(define-fun .def_266 () Bool (and .def_258 .def_264))
(define-fun .def_268 () Bool (or .def_266 .def_267))
(define-fun .def_299 () Bool (and .def_268 .def_298))
(define-fun .def_253 () Bool (not .def_252))
(define-fun .def_300 () Bool (and .def_253 .def_299))
(define-fun .def_319 () Bool (and .def_300 .def_318))
(define-fun .def_323 () Bool (or .def_319 .def_322))
(define-fun .def_243 () Bool (= .def_54 73))
(define-fun .def_207 () Bool (= !pc.next 134))
(define-fun .def_248 () Bool (and .def_207 .def_243))
(define-fun .def_234 () Bool (= |!{$(in_main#0)<k#1>}.next| 0))
(define-fun .def_235 () Bool (and .def_118 .def_234))
(define-fun .def_236 () Bool (and .def_88 .def_235))
(define-fun .def_237 () Bool (and .def_139 .def_236))
(define-fun .def_238 () Bool (and .def_92 .def_237))
(define-fun .def_239 () Bool (and .def_127 .def_238))
(define-fun .def_240 () Bool (and .def_96 .def_239))
(define-fun .def_214 () Int (* (- 1) .def_14))
(define-fun .def_215 () Int (+ .def_8 .def_214))
(define-fun .def_216 () Bool (<= .def_215 1))
(define-fun .def_241 () Bool (and .def_216 .def_240))
(define-fun .def_249 () Bool (and .def_241 .def_248))
(define-fun .def_246 () Bool (and .def_243 .def_245))
(define-fun .def_229 () Bool (= .def_14 |!{$(in_main#0)<$(in_partial_array_argmin#4)<i>>}.next|))
(define-fun .def_226 () Bool (= .def_14 |!{$(in_main#0)<$(in_partial_array_argmin#4)<argmin>>}.next|))
(define-fun .def_222 () Bool (= .def_8 |!{$(in_main#0)<$(in_partial_array_argmin#4)<end>>}.next|))
(define-fun .def_220 () Bool (= .def_10 |!{$(in_main#0)<$(in_partial_array_argmin#4)<array>>}.next|))
(define-fun .def_221 () Bool (and .def_114 .def_220))
(define-fun .def_223 () Bool (and .def_221 .def_222))
(define-fun .def_224 () Bool (and .def_117 .def_223))
(define-fun .def_225 () Bool (and .def_119 .def_224))
(define-fun .def_227 () Bool (and .def_225 .def_226))
(define-fun .def_228 () Bool (and .def_139 .def_227))
(define-fun .def_230 () Bool (and .def_228 .def_229))
(define-fun .def_231 () Bool (and .def_127 .def_230))
(define-fun .def_232 () Bool (and .def_96 .def_231))
(define-fun .def_217 () Bool (not .def_216))
(define-fun .def_233 () Bool (and .def_217 .def_232))
(define-fun .def_247 () Bool (and .def_233 .def_246))
(define-fun .def_250 () Bool (or .def_247 .def_249))
(define-fun .def_199 () Bool (= .def_54 142))
(define-fun .def_208 () Bool (and .def_199 .def_207))
(define-fun .def_189 () Int (* (- 1) |!{$(in_main#0)<k#1>}.next|))
(define-fun .def_190 () Int (+ .def_22 .def_189))
(define-fun .def_191 () Bool (= .def_190 (- 1)))
(define-fun .def_192 () Bool (and .def_118 .def_191))
(define-fun .def_193 () Bool (and .def_88 .def_192))
(define-fun .def_194 () Bool (and .def_139 .def_193))
(define-fun .def_195 () Bool (and .def_92 .def_194))
(define-fun .def_196 () Bool (and .def_127 .def_195))
(define-fun .def_197 () Bool (and .def_96 .def_196))
(define-fun .def_155 () Bool (<= .def_8 .def_26))
(define-fun .def_198 () Bool (and .def_155 .def_197))
(define-fun .def_209 () Bool (and .def_198 .def_208))
(define-fun .def_147 () Bool (= !pc.next 142))
(define-fun .def_204 () Bool (and .def_147 .def_199))
(define-fun .def_122 () Int (* (- 1) |!{$(in_main#0)<l>}.next|))
(define-fun .def_181 () Int (+ .def_26 .def_122))
(define-fun .def_182 () Bool (= .def_181 (- 1)))
(define-fun .def_121 () Bool (and .def_88 .def_120))
(define-fun .def_183 () Bool (and .def_121 .def_182))
(define-fun .def_184 () Bool (and .def_92 .def_183))
(define-fun .def_185 () Bool (and .def_127 .def_184))
(define-fun .def_186 () Bool (and .def_96 .def_185))
(define-fun .def_159 () Int (+ .def_10 .def_26))
(define-fun .def_160 () Int (select .def_30 .def_159))
(define-fun .def_157 () Int (+ .def_10 .def_22))
(define-fun .def_158 () Int (select .def_30 .def_157))
(define-fun .def_161 () Bool (<= .def_158 .def_160))
(define-fun .def_162 () Int (ite .def_161 1 0))
(define-fun .def_163 () Bool (= .def_162 0))
(define-fun .def_164 () Bool (not .def_163))
(define-fun .def_187 () Bool (and .def_164 .def_186))
(define-fun .def_156 () Bool (not .def_155))
(define-fun .def_188 () Bool (and .def_156 .def_187))
(define-fun .def_205 () Bool (and .def_188 .def_204))
(define-fun .def_201 () Bool (= !pc.next 162))
(define-fun .def_202 () Bool (and .def_199 .def_201))
(define-fun .def_168 () Bool (and .def_110 .def_163))
(define-fun .def_169 () Bool (and .def_111 .def_168))
(define-fun .def_170 () Bool (and .def_113 .def_169))
(define-fun .def_171 () Bool (and .def_80 .def_170))
(define-fun .def_172 () Bool (and .def_82 .def_171))
(define-fun .def_173 () Bool (and .def_117 .def_172))
(define-fun .def_174 () Bool (and .def_119 .def_173))
(define-fun .def_175 () Bool (and .def_88 .def_174))
(define-fun .def_176 () Bool (and .def_139 .def_175))
(define-fun .def_177 () Bool (and .def_92 .def_176))
(define-fun .def_178 () Bool (and .def_127 .def_177))
(define-fun .def_179 () Bool (and .def_96 .def_178))
(define-fun .def_180 () Bool (and .def_156 .def_179))
(define-fun .def_203 () Bool (and .def_180 .def_202))
(define-fun .def_206 () Bool (or .def_203 .def_205))
(define-fun .def_210 () Bool (or .def_206 .def_209))
(define-fun .def_150 () Bool (= !pc.next 0))
(define-fun .def_145 () Bool (= .def_54 134))
(define-fun .def_151 () Bool (and .def_145 .def_150))
(define-fun .def_105 () Int (* (- 1) .def_22))
(define-fun .def_106 () Int (+ .def_8 .def_105))
(define-fun .def_107 () Bool (<= .def_106 1))
(define-fun .def_131 () Bool (and .def_107 .def_110))
(define-fun .def_132 () Bool (and .def_111 .def_131))
(define-fun .def_133 () Bool (and .def_113 .def_132))
(define-fun .def_134 () Bool (and .def_80 .def_133))
(define-fun .def_135 () Bool (and .def_82 .def_134))
(define-fun .def_136 () Bool (and .def_117 .def_135))
(define-fun .def_137 () Bool (and .def_119 .def_136))
(define-fun .def_138 () Bool (and .def_88 .def_137))
(define-fun .def_140 () Bool (and .def_138 .def_139))
(define-fun .def_141 () Bool (and .def_92 .def_140))
(define-fun .def_142 () Bool (and .def_127 .def_141))
(define-fun .def_143 () Bool (and .def_96 .def_142))
(define-fun .def_152 () Bool (and .def_143 .def_151))
(define-fun .def_148 () Bool (and .def_145 .def_147))
(define-fun .def_123 () Int (+ .def_22 .def_122))
(define-fun .def_124 () Bool (= .def_123 (- 1)))
(define-fun .def_125 () Bool (and .def_121 .def_124))
(define-fun .def_126 () Bool (and .def_92 .def_125))
(define-fun .def_128 () Bool (and .def_126 .def_127))
(define-fun .def_129 () Bool (and .def_96 .def_128))
(define-fun .def_108 () Bool (not .def_107))
(define-fun .def_130 () Bool (and .def_108 .def_129))
(define-fun .def_149 () Bool (and .def_130 .def_148))
(define-fun .def_153 () Bool (or .def_149 .def_152))
(define-fun .def_101 () Bool (and .def_57 .def_100))
(define-fun .def_94 () Bool (= |!{%memaddr}.next| 2))
(define-fun .def_90 () Bool (= |!{$(in_main#0)<l>}.next| |%{$(in_main#0)<l>}#1|))
(define-fun .def_86 () Bool (= |!{$(in_main#0)<k#1>}.next| |%{$(in_main#0)<k#1>}#1|))
(define-fun .def_84 () Bool (= |!{$(in_main#0)<k>}.next| 0))
(define-fun .def_78 () Bool (= |!{$(in_main#0)<i>}.next| |%{$(in_main#0)<i>}#1|))
(define-fun .def_76 () Bool (= |!{$(in_main#0)<&array>}.next| 1))
(define-fun .def_75 () Bool (= |!{$(in_main#0)<N>}.next| |!{$(in_main#0)<$(in___VERIFIER_nondet_int#1)<h#<__VERIFIER_nondet_int.return>>>}|))
(define-fun .def_77 () Bool (and .def_75 .def_76))
(define-fun .def_79 () Bool (and .def_77 .def_78))
(define-fun .def_81 () Bool (and .def_79 .def_80))
(define-fun .def_83 () Bool (and .def_81 .def_82))
(define-fun .def_85 () Bool (and .def_83 .def_84))
(define-fun .def_87 () Bool (and .def_85 .def_86))
(define-fun .def_89 () Bool (and .def_87 .def_88))
(define-fun .def_91 () Bool (and .def_89 .def_90))
(define-fun .def_93 () Bool (and .def_91 .def_92))
(define-fun .def_95 () Bool (and .def_93 .def_94))
(define-fun .def_97 () Bool (and .def_95 .def_96))
(define-fun .def_70 () Bool (<= |!{$(in_main#0)<$(in___VERIFIER_nondet_int#1)<h#<__VERIFIER_nondet_int.return>>>}| 0))
(define-fun .def_71 () Bool (not .def_70))
(define-fun .def_72 () Int (ite .def_71 1 0))
(define-fun .def_73 () Bool (= .def_72 0))
(define-fun .def_74 () Bool (not .def_73))
(define-fun .def_98 () Bool (and .def_74 .def_97))
(define-fun .def_102 () Bool (and .def_98 .def_101))
(define-fun .def_154 () Bool (or .def_102 .def_153))
(define-fun .def_211 () Bool (or .def_154 .def_210))
(define-fun .def_251 () Bool (or .def_211 .def_250))
(define-fun .def_324 () Bool (or .def_251 .def_323))
(define-fun .def_360 () Bool (! (or .def_324 .def_359) :trans true))
(define-fun .def_212 () Bool (= .def_54 162))
(define-fun .def_361 () Bool (! (not .def_212) :invar-property 0 :invar-property-name ||))
(assert true)
